202 300 195 171 188 162 188 185 197 151 159 182 195 192 173 192 153 162 157 199 187 178 154 169 153 159 190 159 164 166 186 163 161 180 184 173 192 197 157 162 198 192 194 192 183 166 157 187 153 189 159 190 167 188 158 195 197 172 153 185 188 189 198 173 193 182 197 159 178 178 171 200 169 165 165 177 155 173 188 158 161 197 172 152 184 155 198 180 177 150 164 190 164 161 162 181 167 158 190 169 161 161 168 154 150 184 181 155 181 193 189 166 189 160 169 172 190 191 176 167 165 190 181 179 176 193 185 167 176 174 187 187 185 179 165 159 187 171 165 167 163 178 184 152 162 177 199 152 167 175 194 182 189 174 186 189 191 170 156 166 194 167 177 153 170 193 187 157 163 151 174 176 153 182 152 166 158 151 168 200 150 186 182 189 159 167 152 200 161 183 191 179 200 167 156 169 184 194 150 171 195 175 172 173 